StudentsNr = 10;
InstructorsNr = 98;
DaysNr = 2;
SlotsPerDay = 15;
AvailabilitySlotsLenght = 3;
RoomNr = 1;
ProgrammNr = 2;
DegreeNr = 3;
RolesNr = 2;
CoursesNr = 0;
InstructorsProgramm = [{2}, {1}, {2}, {1}, {1, 2}, {1}, {2}, {2}, {2}, {1, 2}, {1}, {2}, {1}, {1}, {1, 2}, {2}, {2}, {1}, {1, 2}, {2}, {1}, {1}, {2}, {1, 2}, {1, 2}, {1}, {1}, {1, 2}, {1}, {1, 2}, {1}, {2}, {1}, {2}, {2}, {2}, {1, 2}, {1}, {1, 2}, {2}, {1, 2}, {2}, {1}, {1, 2}, {1, 2}, {1, 2}, {1, 2}, {1, 2}, {2}, {1}, {1}, {1}, {2}, {1}, {1, 2}, {2}, {2}, {2}, {1}, {2}, {2}, {1}, {2}, {2}, {1, 2}, {1, 2}, {2}, {1}, {1}, {2}, {1}, {2}, {1, 2}, {1, 2}, {1}, {1, 2}, {1, 2}, {2}, {2}, {1}, {1}, {2}, {1}, {2}, {1}, {1, 2}, {2}, {2}, {1}, {1}, {1}, {1, 2}, {1, 2}, {2}, {2}, {1, 2}, {1, 2}, {2}];
InstructorRolesPerProgramm = [|{2, 4, 13, 18, 21, 22, 24, 25, 30, 33, 37, 41, 43, 45, 46, 48, 50, 51, 54, 62, 73, 75, 80, 81, 83, 85, 90, 91}, {2, 4, 6, 11, 14, 19, 25, 29, 37, 52, 54, 66, 68, 71, 75, 76, 80, 81, 85, 86, 90, 93, 97}|{7, 12, 20, 24, 25, 30, 32, 37, 41, 45, 46, 48, 49, 60, 63, 73, 82, 87, 95, 98}, {7, 19, 23, 25, 35, 37, 49, 56, 57, 58, 64, 66, 70, 72, 76, 86, 87, 88, 93, 94, 97}|];
InstructorsAvailability = [|1, 1, 0, 1, 1, 1, 1, 1, 1, 1, |0, 0, 1, 1, 1, 1, 1, 1, 1, 1, |1, 1, 1, 1, 0, 1, 1, 1, 1, 1, |0, 1, 1, 1, 1, 1, 1, 1, 1, 0, |0, 0, 0, 1, 1, 1, 1, 1, 1, 1, |1, 1, 1, 1, 1, 1, 1, 1, 1, 1, |1, 1, 1, 0, 1, 1, 0, 0, 1, 1, |1, 1, 0, 0, 1, 1, 1, 1, 1, 1, |0, 0, 1, 1, 1, 1, 1, 0, 0, 0, |1, 1, 1, 1, 1, 1, 1, 1, 1, 1, |1, 0, 1, 1, 1, 1, 1, 1, 1, 1, |0, 1, 1, 1, 1, 1, 1, 1, 1, 1, |1, 1, 1, 1, 1, 1, 1, 1, 1, 1, |1, 1, 1, 1, 1, 1, 1, 0, 0, 0, |1, 1, 1, 1, 1, 1, 1, 1, 1, 1, |0, 1, 1, 1, 1, 1, 1, 1, 1, 1, |0, 1, 1, 1, 1, 1, 1, 0, 0, 1, |1, 1, 1, 1, 1, 1, 1, 1, 1, 1, |0, 0, 1, 1, 1, 1, 1, 1, 1, 1, |0, 1, 1, 1, 1, 1, 1, 1, 1, 1, |0, 1, 1, 1, 1, 1, 1, 1, 1, 0, |0, 1, 1, 1, 1, 1, 1, 1, 1, 1, |0, 1, 1, 1, 1, 1, 1, 1, 1, 1, |0, 0, 0, 1, 1, 1, 1, 1, 1, 1, |0, 1, 1, 1, 1, 1, 1, 1, 1, 1, |0, 1, 1, 1, 1, 1, 1, 1, 1, 0, |0, 1, 1, 1, 1, 1, 1, 1, 1, 1, |0, 0, 0, 1, 1, 0, 1, 0, 1, 1, |1, 1, 1, 1, 1, 0, 0, 1, 1, 1, |1, 1, 1, 0, 1, 1, 0, 1, 1, 0, |1, 1, 1, 0, 1, 1, 1, 1, 0, 1, |0, 0, 1, 1, 1, 0, 0, 1, 1, 1, |1, 1, 1, 1, 1, 1, 1, 1, 1, 1, |0, 1, 1, 1, 0, 0, 0, 0, 1, 1, |1, 0, 1, 1, 1, 1, 1, 1, 1, 1, |0, 0, 1, 1, 1, 1, 1, 1, 1, 1, |0, 1, 1, 0, 0, 1, 1, 0, 1, 1, |1, 0, 1, 0, 0, 1, 1, 0, 0, 1, |1, 1, 1, 1, 1, 1, 1, 1, 1, 1, |1, 1, 1, 1, 1, 1, 1, 1, 1, 1, |1, 1, 1, 0, 1, 1, 1, 1, 1, 1, |0, 1, 1, 1, 1, 1, 1, 0, 0, 1, |0, 0, 1, 1, 1, 0, 1, 1, 1, 1, |1, 1, 0, 0, 1, 1, 1, 1, 1, 1, |1, 0, 1, 1, 1, 1, 1, 1, 1, 1, |1, 1, 1, 1, 1, 1, 1, 1, 1, 1, |1, 1, 1, 1, 1, 1, 1, 1, 1, 1, |0, 0, 1, 1, 1, 1, 1, 1, 1, 1, |1, 1, 1, 1, 0, 1, 1, 1, 0, 1, |0, 0, 0, 0, 1, 1, 1, 1, 1, 1, |1, 1, 1, 1, 1, 1, 1, 1, 1, 0, |1, 0, 1, 1, 0, 0, 0, 1, 0, 1, |0, 1, 1, 1, 1, 1, 1, 1, 0, 1, |1, 1, 1, 1, 1, 1, 1, 0, 0, 0, |1, 1, 1, 1, 1, 1, 1, 1, 0, 0, |0, 1, 1, 1, 1, 1, 0, 1, 1, 1, |1, 1, 0, 1, 1, 0, 1, 1, 1, 0, |1, 1, 1, 1, 1, 1, 1, 1, 1, 1, |1, 0, 0, 1, 0, 1, 0, 0, 1, 1, |0, 1, 1, 0, 1, 1, 1, 1, 1, 1, |1, 0, 1, 1, 1, 1, 1, 1, 0, 1, |1, 1, 1, 1, 0, 1, 1, 1, 1, 1, |0, 0, 0, 0, 0, 1, 1, 1, 1, 1, |1, 1, 1, 1, 1, 1, 1, 0, 0, 0, |1, 1, 1, 1, 1, 1, 0, 1, 1, 1, |0, 1, 1, 1, 0, 1, 0, 1, 1, 1, |0, 0, 0, 1, 1, 1, 0, 1, 1, 1, |1, 1, 1, 1, 1, 0, 1, 1, 1, 1, |1, 1, 1, 1, 1, 1, 1, 1, 1, 1, |1, 1, 1, 1, 1, 1, 1, 1, 1, 1, |1, 1, 1, 1, 1, 0, 1, 0, 1, 1, |1, 1, 1, 1, 1, 1, 0, 0, 1, 0, |0, 1, 1, 1, 1, 1, 1, 0, 1, 1, |0, 0, 0, 0, 1, 1, 1, 1, 1, 1, |1, 1, 0, 1, 1, 1, 1, 1, 1, 1, |1, 1, 1, 1, 0, 1, 1, 1, 1, 0, |1, 1, 1, 0, 0, 0, 1, 0, 1, 1, |0, 1, 1, 1, 1, 1, 0, 1, 1, 1, |0, 0, 0, 0, 0, 0, 1, 1, 0, 1, |0, 0, 1, 1, 1, 1, 1, 1, 0, 1, |1, 1, 1, 1, 0, 0, 0, 0, 1, 0, |1, 0, 1, 1, 1, 1, 1, 1, 1, 1, |0, 1, 1, 1, 1, 1, 0, 0, 1, 1, |0, 1, 0, 1, 1, 1, 1, 1, 1, 1, |1, 1, 1, 1, 1, 0, 0, 0, 0, 1, |0, 0, 1, 1, 1, 1, 1, 1, 0, 1, |1, 1, 1, 1, 1, 1, 1, 1, 1, 1, |0, 1, 1, 0, 1, 1, 1, 1, 1, 1, |1, 1, 1, 1, 1, 1, 1, 1, 1, 0, |0, 1, 1, 1, 0, 0, 1, 1, 1, 1, |1, 1, 0, 1, 1, 1, 1, 1, 1, 1, |0, 1, 1, 1, 1, 1, 1, 0, 1, 1, |0, 1, 1, 1, 1, 0, 0, 1, 0, 0, |1, 1, 0, 1, 0, 1, 1, 1, 1, 0, |0, 0, 0, 0, 1, 1, 1, 1, 1, 1, |1, 1, 1, 1, 0, 1, 0, 1, 1, 0, |1, 1, 1, 1, 1, 0, 0, 1, 1, 1, |0, 1, 1, 1, 0, 0, 1, 1, 0, 1|];
StudentsProgramm = [2, 2, 2, 2, 1, 1, 1, 1, 1, 2];
StudentsDegree = [3, 2, 3, 3, 3, 1, 3, 3, 1, 2];
StudentsSupervisorId = [48, 12, 10, 9, 19, 73, 11, 4, 10, 88];
StudentsCourseIds = [{}, {}, {}, {}, {}, {}, {}, {}, {}, {}];
StudentsAvailability = [|0, 1, 1, 1, 1, 1, 1, 1, 1, 1, |0, 0, 1, 0, 1, 1, 1, 1, 1, 1, |0, 0, 1, 1, 1, 1, 1, 1, 1, 1, |0, 0, 0, 0, 0, 1, 1, 1, 1, 0, |0, 0, 1, 1, 1, 1, 1, 1, 1, 1, |1, 1, 1, 1, 0, 0, 1, 1, 1, 1, |1, 1, 1, 1, 1, 1, 1, 1, 1, 1, |1, 1, 1, 1, 1, 1, 1, 1, 1, 1, |0, 0, 1, 1, 1, 1, 1, 1, 0, 0, |1, 0, 1, 1, 1, 1, 1, 1, 1, 1|];
TheoryticalMinCard = [0, 0, 1, 1, 0, 0, 0, 0, 1, 0];
CoursesInstructorIds = [];
RolesDemands = [7, 17];
RolesContinuity = [1];
ExamLen = [1, 1, 1, 1, 1, 1, 1, 1, 1, 1];
LunchTsMinLen = 1;
LunchStarts = [7..9, 20..24];
SupervisorAvailable = 5;
OptimalLunchLenght = [0, 1];
OptimalStartTs = [2, 0];
OptimalFinishTs = [1, 15];
MinimizeRooms = 100;
RolesSoftContinuity = [|1, 2|2, 0|];
SameDegreeInRoom = 0;
Mergeability = 1;
